1273 1271 1
1289 1271 2
1276 1271 1
1270 1272 1
1272 1273 4
1286 1274 1
1275 1274 2
1277 1276 3
1279 1278 2
1286 1278 1
1276 1280 1
1280 1281 1
1271 1281 1
1288 1282 2
1271 1282 3
1280 1282 1
1295 1283 1
1280 1283 1
1288 1283 2
1271 1283 4
1270 1284 1
1284 1285 4
1270 1287 1
1289 1288 2
1287 1288 1
1294 1289 3
1270 1289 1
1288 1290 2
1271 1290 2
1287 1291 1
1272 1291 1
1287 1292 1
1284 1292 1
1273 1295 1
1271 1296 1
1295 1296 1
1295 1297 1
1271 1297 1
